100 8
398 759
290 441
718 915
567 426
407 311
884 698
550 719
560 341
420 654
891 98
778 158
684 533
203 251
630 797
499 601
270 201
107 104
835 820
844 230
112 373
203 299
764 899
700 373
791 906
696 274
818 945
550 715
95 101
748 513
335 263
297 586
923 696
393 411
458 448
513 394
273 219
723 286
682 848
292 710
812 792
728 899
895 901
881 757
468 737
283 307
705 485
771 172
838 719
846 275
297 778
741 779
840 891
581 417
116 226
545 423
889 666
99 195
750 889
665 129
599 137
174 353
410 772
604 95
694 758
403 698
203 186
171 168
647 125
667 396
579 237
766 728
758 391
755 266
324 639
626 624
214 89
696 269
884 669
573 485
250 239
255 190
379 668
398 729
235 73
777 825
456 637
375 459
569 167
722 760
872 607
179 334
275 725
317 388
208 384
791 715
610 399
868 229
681 102
708 173
888 918
